(declare-fun y!1 () (_ BitVec 8))
(declare-fun y!2 () (_ BitVec 8))
(declare-fun y!3 () (_ BitVec 8))
(declare-fun trig4 () Bool)
(assert (or (not (or (not (= #b00000001 y!1)) (not (= #b00000000 y!2)) (not (= (ite (bvuge y!1 #b01100100) y!1 (bvadd y!1 y!2)) y!3)))) (not trig4)))
(declare-fun y!1 () (_ BitVec 8))
(declare-fun y!2 () (_ BitVec 8))
(declare-fun y!3 () (_ BitVec 8))
(declare-fun trig4 () Bool)
(assert (or (= (ite (bvuge y!1 #b01100100) y!1 (bvadd y!1 y!2)) y!3) (not trig4)))
(check-sat)
